lattice_vector 20.0  0.0  0.0
lattice_vector  0.0 20.0  0.0
lattice_vector  0.0  0.0 20.0
atom 0.0   0.0     0.50000  Zn
atom 0.0   0.0     2.48493   O
