# Typical DFT setup
# electronic part
 ISTART = 0
 ENCUT = _encut_
 PREC = _prec_
 LREAL = .False.
 EDIFF = 1E-8
 ISPIN = 1
 ISMEAR = 0 ; SIGMA = 0.05
 NPAR = 4
 LMAXMIX = 6
 GGA = PE
