# common electronic part
 ISTART = 1
 ICHARG = 11
 ENCUT = _encut_
 PREC = _prec_
 LREAL = .False.
 EDIFF = 1E-8
 ISPIN = 1
 ISMEAR = 0 ; SIGMA = 0.05
 LMAXMIX = 6

# G0W0 setup
 ALGO = GW0 ;
 NELM = 1
 ENCUTGW = _encutgw_
 NBANDS = _nbands_
 LOPTICS = .TRUE.
 NEDOS = 3000
 NOMEGA = 192
 LWAVE = F
 KPAR = 2
