Sample k-path (FCC)
15
line
rec
0.5000   0.5000   0.5000 ! R
0.0000   0.0000   0.0000 ! Gamma

0.0000   0.0000   0.0000 ! Gamma
0.0000   0.0000   0.5000 ! X

0.0000   0.0000   0.5000 ! X
0.5000   0.0000   0.5000 ! M

0.5000   0.0000   0.5000 ! M
0.5000   0.5000   0.5000 ! R

0.5000   0.5000   0.5000 ! R
0.5000   0.0000   0.0000 ! X
