band calculation

LORBIT = 11
ICHARG = 11

LREAL = .FALSE.
EDIFF = _ediff_
ENCUT = _encut_
ISMEAR = 0
SIGMA = 0.05     # fixed sigma for band
PREC = _prec_
ISPIN = _ispin_
LMAXMIX = 6

