# Compute partial charge
# read WAVECAR from SCF and does not do real calculation
LWAVE = .FALSE.
ISTART = 1
ALGO = Nothing

LREAL = .FALSE.
EDIFF = _ediff_
ENCUT = _encut_
ISMEAR = 0
SIGMA = _sigma_
PREC = _prec_
ISPIN = _ispin_
LMAXMIX = 6

LPARD = T
# decomposed to band and kpoint
LSEPB = T
LSEPK = T
# required bands and kpoints below
