DOS calculation

LORBIT = 11
ICHARG = 11

LREAL = .FALSE.
EDIFF = _ediff_
ENCUT = _encut_
ISMEAR = -5
PREC = _prec_
ISPIN = _ispin_
LMAXMIX = 6

NEDOS = 1200
ISYM = 0

