FeS2 HSE06 coarse convergence
ISTART = 1
LREAL = .FALSE.
EDIFF = _ediff_
ENCUT = _encut_

ISMEAR = 0
SIGMA = 0.05
PREC = _prec_
ISPIN = 1
LMAXMIX = 6
ALGO = ALL

GGA = PE
LHFCALC = .TRUE.
TIME = 0.4
PRECFOCK = Fast
NKREDX = _nkredx_
NKREDY = _nkredy_
NKREDZ = _nkredz_
HFSCREEN = _hfscreen_


