FeS2 HSE06 coarse convergence
ISTART = 1
LREAL = .FALSE.
EDIFF = 1e-06
ENCUT = _encut_

ISMEAR = 0
SIGMA = 0.05
PREC = Accurate
ISPIN = 1
LMAXMIX = 6
ALGO = ALL

GGA = PE
LHFCALC = .TRUE.
PRECFOCK = Fast
NKRED = _nkred_
TIME = 0.4
HFSCREEN = _hfscreen_


