
 xc pw-lda
 spin collinear
 relativistic none
 override_relativity .true.
#
# DO NOT USE IN PRODUCTION
 k_grid 1 1 3
#
 output band 0       0       0       0       0.5     0.5     20   Gamma X
 output band 0       0.5     0.5     0.25    0.5     0.75    20   X     W
 output band 0.25    0.5     0.75    0.5     0.5     0.5     20   W     L
#
################################################################################
#
#  FHI-aims code project
#  VB, Fritz-Haber Institut, 2009
#
#  Suggested "light" defaults for Sc atom (to be pasted into control.in file)
#  Be sure to double-check any results obtained with these settings for post-processing,
#  e.g., with the "tight" defaults and larger basis sets.
#
################################################################################
  species        Sc
#     global species definitions
    nucleus             21
    mass                44.955912
#
    l_hartree           4
#
    cut_pot             3.0          1.0  1.0  # Cutoff reduced! Proof of principle.
    basis_dep_cutoff    1e-4
#
    radial_base         47 5.0
    radial_multiplier   1
    angular_grids       specified
      division   0.6021   50
      division   1.1116  110
      division   1.4663  194
      division   1.6660  302
#      division   1.8551  434
#      division   2.0245  590
#      division   2.2132  770
#      division   2.5421  974
#      division   3.1021 1202
#      outer_grid  974
      outer_grid  302
################################################################################
#
#  Definition of "minimal" basis
#
################################################################################
#     valence basis states
    valence      4  s   2.
    valence      3  p   6.
    valence      3  d   1.
#     ion occupancy
    ion_occ      4  s   1.
    ion_occ      3  p   6.
################################################################################
#
#  Suggested additional basis functions. For production calculations,
#  uncomment them one after another (the most important basis functions are
#  listed first).
#
#  Constructed for dimers: 1.75 A, 2.15 A, 2.75 A, 3.5 A, 4.5 A
#
#  Basis set generation could be continued below tier 3.
#
################################################################################
#  "First tier" - improvements: -267.88 meV to -17.01 meV
     hydro 4 f 6.8
     ionic 4 p auto
     ionic 4 d auto
#     hydro 5 g 10.4
     ionic 4 s auto
#  "Second tier" - improvements: -14.68 meV to -1.92 meV
#     hydro 4 f 9.8
#     ionic 3 d auto
#     hydro 3 p 2.4
#     hydro 6 h 14.8
#     hydro 4 d 6.2
#     hydro 1 s 0.45
#  "Third tier" - improvements: -1.14 meV to -0.26 meV
#     hydro 4 f 8
#     hydro 5 g 12
#     hydro 2 p 1.9
#     hydro 3 d 3.2
#     hydro 6 h 16
#     hydro 4 s 3.5
#  Further basis functions - not yet done.





plus_u      3 d 5.0

################################################################################
#
#  FHI-aims code project
#  VB, Fritz-Haber Institut, 2009
#
#  Suggested "light" defaults for N atom (to be pasted into control.in file)
#  Be sure to double-check any results obtained with these settings for post-processing,
#  e.g., with the "tight" defaults and larger basis sets.
#
################################################################################
  species        N
#     global species definitions
    nucleus             7
    mass                14.0067
#
    l_hartree           4
#
    cut_pot             3.0  1.0  1.0  # Cutoff reduced! Proof of principle.
    basis_dep_cutoff    1e-4
#
    radial_base         35 5.0
    radial_multiplier   1
    angular_grids       specified
      division   0.2599   50
      division   0.4601  110
      division   0.5885  194
      division   0.6503  302
#      division   0.6939  434
#      division   0.7396  590
#      division   0.7632  770
#      division   0.8122  974
#      division   1.1604 1202
#      outer_grid  974
      outer_grid  302
################################################################################
#
#  Definition of "minimal" basis
#
################################################################################
#     valence basis states
    valence      2  s   2.
    valence      2  p   3.
#     ion occupancy
    ion_occ      2  s   1.
    ion_occ      2  p   2.
################################################################################
#
#  Suggested additional basis functions. For production calculations,
#  uncomment them one after another (the most important basis functions are
#  listed first).
#
#  Constructed for dimers: 1.0 A, 1.1 A, 1.5 A, 2.0 A, 3.0 A
#
################################################################################
#  "First tier" - improvements: -1193.42 meV to -220.60 meV
     hydro 2 p 1.8
     hydro 3 d 6.8
     hydro 3 s 5.8
#  "Second tier" - improvements: -80.21 meV to -6.86 meV
#     hydro 4 f 10.8
#     hydro 3 p 5.8
#     hydro 1 s 0.8
#     hydro 5 g 16
#     hydro 3 d 4.9
#  "Third tier" - improvements: -4.29 meV to -0.53 meV
#     hydro 3 s 16
#     ionic 2 p auto
#     hydro 3 d 6.6
#     hydro 4 f 11.6
#  "Fourth tier" - improvements: -0.75 meV to -0.25 meV
#     hydro 2 p 4.5
#     hydro 2 s 2.4
#     hydro 5 g 14.4
#     hydro 4 d 14.4
#     hydro 4 f 16.8
# Further basis functions - -0.21 meV and below
#     hydro 3 p 14.8
#     hydro 3 s 4.4
#     hydro 3 d 19.6
#     hydro 5 g 12.8
